p cnf 57 196
c p weight 8 -1 0
c p weight -8 1 0
c p weight 10 6.12323399573676603586882014729198302312846062338790031898128063403419218957424163818359375E-17 0
c p weight -10 1 0
c p weight 11 1 0
c p weight -11 1 0
c p weight 12 -1 0
c p weight -12 1 0
c p weight 14 -1 0
c p weight -14 1 0
c p weight 15 -1 0
c p weight -15 1 0
c p weight 17 -1 0
c p weight -17 1 0
c p weight 19 6.12323399573676603586882014729198302312846062338790031898128063403419218957424163818359375E-17 0
c p weight -19 1 0
c p weight 20 1 0
c p weight -20 1 0
c p weight 21 -1 0
c p weight -21 1 0
c p weight 23 -1 0
c p weight -23 1 0
c p weight 24 -1 0
c p weight -24 1 0
c p weight 25 -1 0
c p weight -25 1 0
c p weight 27 -1 0
c p weight -27 1 0
c p weight 29 6.12323399573676603586882014729198302312846062338790031898128063403419218957424163818359375E-17 0
c p weight -29 1 0
c p weight 30 1 0
c p weight -30 1 0
c p weight 31 -1 0
c p weight -31 1 0
c p weight 33 -1 0
c p weight -33 1 0
c p weight 36 -1 0
c p weight -36 1 0
c p weight 37 -1 0
c p weight -37 1 0
c p weight 39 -1 0
c p weight -39 1 0
c p weight 41 6.12323399573676603586882014729198302312846062338790031898128063403419218957424163818359375E-17 0
c p weight -41 1 0
c p weight 42 1 0
c p weight -42 1 0
c p weight 43 -1 0
c p weight -43 1 0
c p weight 45 -1 0
c p weight -45 1 0
c p weight 48 -1 0
c p weight -48 1 0
c p weight 49 -1 0
c p weight -49 1 0
c p weight 51 -1 0
c p weight -51 1 0
c p weight 53 6.12323399573676603586882014729198302312846062338790031898128063403419218957424163818359375E-17 0
c p weight -53 1 0
c p weight 54 1 0
c p weight -54 1 0
c p weight 55 -1 0
c p weight -55 1 0
c p weight 57 -1 0
c p weight -57 1 0
-5 0
-3 0
-1 0
7 1 -2 0
7 -1 2 0
-7 1 2 0
-7 -1 -2 0
-8 1 0
-8 2 0
8 -1 -2 0
9 -1 7 0
-9 1 7 0
-10 7 0
9 -10 -1 0
-9 -10 1 0
9 10 1 -7 0
-9 10 -1 -7 0
-11 7 0
9 -11 1 0
-9 -11 -1 0
9 11 -1 -7 0
-9 11 1 -7 0
-12 9 0
-12 7 0
-12 -1 0
12 -9 1 -7 0
13 9 -7 0
13 -9 7 0
-13 9 7 0
-13 -9 -7 0
-14 9 0
-14 7 0
14 -9 -7 0
15 -13 0
-15 13 0
16 3 -4 0
16 -3 4 0
-16 3 4 0
-16 -3 -4 0
-17 3 0
-17 4 0
17 -3 -4 0
18 -3 16 0
-18 3 16 0
-19 16 0
18 -19 -3 0
-18 -19 3 0
18 19 3 -16 0
-18 19 -3 -16 0
-20 16 0
18 -20 3 0
-18 -20 -3 0
18 20 -3 -16 0
-18 20 3 -16 0
-21 18 0
-21 16 0
-21 -3 0
21 -18 3 -16 0
22 18 -16 0
22 -18 16 0
-22 18 16 0
-22 -18 -16 0
-23 18 0
-23 16 0
23 -18 -16 0
24 -22 0
-24 22 0
25 -6 0
-25 6 0
26 5 -6 0
26 -5 6 0
-26 5 6 0
-26 -5 -6 0
-27 5 0
-27 6 0
27 -5 -6 0
28 -5 26 0
-28 5 26 0
-29 26 0
28 -29 -5 0
-28 -29 5 0
28 29 5 -26 0
-28 29 -5 -26 0
-30 26 0
28 -30 5 0
-28 -30 -5 0
28 30 -5 -26 0
-28 30 5 -26 0
-31 28 0
-31 26 0
-31 -5 0
31 -28 5 -26 0
32 28 -26 0
32 -28 26 0
-32 28 26 0
-32 -28 -26 0
-33 28 0
-33 26 0
33 -28 -26 0
34 9 -28 0
34 -9 28 0
-34 9 28 0
-34 -9 -28 0
35 13 -32 0
35 -13 32 0
-35 13 32 0
-35 -13 -32 0
-36 9 0
-36 32 0
-36 28 -13 0
-36 -28 13 0
36 -9 28 13 -32 0
36 -9 -28 -13 -32 0
37 -35 0
-37 35 0
38 9 -35 0
38 -9 35 0
-38 9 35 0
-38 -9 -35 0
-39 9 0
-39 35 0
39 -9 -35 0
40 -9 38 0
-40 9 38 0
-41 38 0
40 -41 -9 0
-40 -41 9 0
40 41 9 -38 0
-40 41 -9 -38 0
-42 38 0
40 -42 9 0
-40 -42 -9 0
40 42 -9 -38 0
-40 42 9 -38 0
-43 40 0
-43 38 0
-43 -9 0
43 -40 9 -38 0
44 40 -38 0
44 -40 38 0
-44 40 38 0
-44 -40 -38 0
-45 40 0
-45 38 0
45 -40 -38 0
46 18 -34 0
46 -18 34 0
-46 18 34 0
-46 -18 -34 0
47 22 -32 0
47 -22 32 0
-47 22 32 0
-47 -22 -32 0
-48 18 0
-48 32 0
-48 34 -22 0
-48 -34 22 0
48 -18 34 22 -32 0
48 -18 -34 -22 -32 0
49 -47 0
-49 47 0
50 18 -47 0
50 -18 47 0
-50 18 47 0
-50 -18 -47 0
-51 18 0
-51 47 0
51 -18 -47 0
52 -18 50 0
-52 18 50 0
-53 50 0
52 -53 -18 0
-52 -53 18 0
52 53 18 -50 0
-52 53 -18 -50 0
-54 50 0
52 -54 18 0
-52 -54 -18 0
52 54 -18 -50 0
-52 54 18 -50 0
-55 52 0
-55 50 0
-55 -18 0
55 -52 18 -50 0
56 52 -50 0
56 -52 50 0
-56 52 50 0
-56 -52 -50 0
-57 52 0
-57 50 0
57 -52 -50 0
-40 0
-52 0
-56 0
-46 0
-32 0
